9 4 4 6 2 6 2 -1 3 -1 
9 3 -1 3 3 1 0 -1 8 -1 
8 7 7 2 1 6 -1 10 7 -1 
5 9 9 4 4 10 0 6 10 -1 
1 6 6 8 8 8 1 -1 0 -1 
8 0 -1 4 4 -1 10 1 0 -1 
-1 3 4 6 0 8 4 1 2 -1 
4 0 3 -1 5 4 9 10 0 -1 
4 9 1 3 4 2 8 10 6 -1 
4 7 0 10 1 2 -1 1 3 -1 
